p cnf 430 1488
-191 118 0
-191 117 0
-191 8 0
-191 131 0
-191 154 0
191 -118 -117 -8 -131 -154 0
-192 150 0
-192 -49 0
-192 -35 0
-192 32 0
-192 159 0
192 -150 49 35 -32 -159 0
-193 76 0
-193 156 0
-193 96 0
-193 -77 0
-193 -148 0
193 -76 -156 -96 77 148 0
-194 95 0
-194 -105 0
-194 3 0
-194 10 0
-194 -108 0
194 -95 105 -3 -10 108 0
-195 -15 0
-195 153 0
-195 159 0
-195 -180 0
-195 -76 0
195 15 -153 -159 180 76 0
191 192 193 194 195 0
-196 -42 0
-196 -121 0
-196 -107 0
-196 -118 0
-196 -148 0
196 42 121 107 118 148 0
-197 -56 0
-197 112 0
-197 111 0
-197 -8 0
-197 129 0
197 56 -112 -111 8 -129 0
-198 -107 0
-198 45 0
-198 -110 0
-198 11 0
-198 -9 0
198 107 -45 110 -11 9 0
-199 -55 0
-199 -10 0
-199 121 0
-199 19 0
-199 4 0
199 55 10 -121 -19 -4 0
-200 -113 0
-200 37 0
-200 121 0
-200 -143 0
-200 178 0
200 113 -37 -121 143 -178 0
196 197 198 199 200 0
-201 -123 0
-201 -84 0
-201 -50 0
-201 144 0
-201 -170 0
201 123 84 50 -144 170 0
-202 84 0
-202 64 0
-202 135 0
-202 -66 0
-202 109 0
202 -84 -64 -135 66 -109 0
-203 110 0
-203 -111 0
-203 183 0
-203 -28 0
-203 -186 0
203 -110 111 -183 28 186 0
-204 -32 0
-204 -162 0
-204 19 0
-204 39 0
-204 -107 0
204 32 162 -19 -39 107 0
-205 -131 0
-205 90 0
-205 123 0
-205 125 0
-205 33 0
205 131 -90 -123 -125 -33 0
201 202 203 204 205 0
-206 4 0
-206 78 0
-206 119 0
-206 -164 0
-206 -33 0
206 -4 -78 -119 164 33 0
-207 -3 0
-207 -34 0
-207 -51 0
-207 80 0
-207 -115 0
207 3 34 51 -80 115 0
-208 -96 0
-208 -57 0
-208 148 0
-208 10 0
-208 -29 0
208 96 57 -148 -10 29 0
-209 40 0
-209 156 0
-209 -107 0
-209 -172 0
-209 99 0
209 -40 -156 107 172 -99 0
-210 -146 0
-210 -172 0
-210 187 0
-210 33 0
-210 -137 0
210 146 172 -187 -33 137 0
206 207 208 209 210 0
-211 106 0
-211 -143 0
-211 15 0
-211 98 0
-211 -6 0
211 -106 143 -15 -98 6 0
-212 106 0
-212 121 0
-212 -47 0
-212 14 0
-212 -119 0
212 -106 -121 47 -14 119 0
-213 134 0
-213 -114 0
-213 -117 0
-213 23 0
-213 -186 0
213 -134 114 117 -23 186 0
-214 58 0
-214 -21 0
-214 -41 0
-214 26 0
-214 -92 0
214 -58 21 41 -26 92 0
-215 42 0
-215 -86 0
-215 -104 0
-215 -163 0
-215 79 0
215 -42 86 104 163 -79 0
211 212 213 214 215 0
-216 -75 0
-216 39 0
-216 162 0
-216 -111 0
-216 155 0
216 75 -39 -162 111 -155 0
-217 -34 0
-217 -133 0
-217 -144 0
-217 -80 0
-217 113 0
217 34 133 144 80 -113 0
-218 92 0
-218 -38 0
-218 115 0
-218 -69 0
-218 -108 0
218 -92 38 -115 69 108 0
-219 -60 0
-219 91 0
-219 101 0
-219 -22 0
-219 175 0
219 60 -91 -101 22 -175 0
-220 -165 0
-220 176 0
-220 86 0
-220 -74 0
-220 11 0
220 165 -176 -86 74 -11 0
216 217 218 219 220 0
-221 182 0
-221 -189 0
-221 159 0
-221 106 0
-221 128 0
221 -182 189 -159 -106 -128 0
-222 21 0
-222 -63 0
-222 96 0
-222 147 0
-222 37 0
222 -21 63 -96 -147 -37 0
-223 109 0
-223 6 0
-223 -170 0
-223 23 0
-223 140 0
223 -109 -6 170 -23 -140 0
-224 -53 0
-224 102 0
-224 -141 0
-224 176 0
-224 68 0
224 53 -102 141 -176 -68 0
-225 -144 0
-225 -101 0
-225 -188 0
-225 -185 0
-225 141 0
225 144 101 188 185 -141 0
221 222 223 224 225 0
-226 -85 0
-226 -127 0
-226 -185 0
-226 -8 0
-226 170 0
226 85 127 185 8 -170 0
-227 -142 0
-227 -33 0
-227 -99 0
-227 -103 0
-227 169 0
227 142 33 99 103 -169 0
-228 -180 0
-228 177 0
-228 -48 0
-228 -21 0
-228 3 0
228 180 -177 48 21 -3 0
-229 21 0
-229 -85 0
-229 46 0
-229 -119 0
-229 -146 0
229 -21 85 -46 119 146 0
-230 145 0
-230 -111 0
-230 -108 0
-230 97 0
-230 -81 0
230 -145 111 108 -97 81 0
226 227 228 229 230 0
-231 102 0
-231 -82 0
-231 -76 0
-231 -12 0
-231 -109 0
231 -102 82 76 12 109 0
-232 102 0
-232 -84 0
-232 100 0
-232 179 0
-232 115 0
232 -102 84 -100 -179 -115 0
-233 -32 0
-233 -101 0
-233 65 0
-233 121 0
-233 -184 0
233 32 101 -65 -121 184 0
-234 190 0
-234 -89 0
-234 -132 0
-234 51 0
-234 -97 0
234 -190 89 132 -51 97 0
-235 107 0
-235 152 0
-235 139 0
-235 -172 0
-235 83 0
235 -107 -152 -139 172 -83 0
231 232 233 234 235 0
-236 91 0
-236 13 0
-236 105 0
-236 -69 0
-236 -138 0
236 -91 -13 -105 69 138 0
-237 -125 0
-237 164 0
-237 -107 0
-237 66 0
-237 62 0
237 125 -164 107 -66 -62 0
-238 121 0
-238 -166 0
-238 149 0
-238 -83 0
-238 89 0
238 -121 166 -149 83 -89 0
-239 5 0
-239 96 0
-239 -162 0
-239 22 0
-239 -171 0
239 -5 -96 162 -22 171 0
-240 162 0
-240 -163 0
-240 -136 0
-240 105 0
-240 132 0
240 -162 163 136 -105 -132 0
236 237 238 239 240 0
-241 -164 0
-241 171 0
-241 139 0
-241 -96 0
-241 162 0
241 164 -171 -139 96 -162 0
-242 -19 0
-242 24 0
-242 11 0
-242 167 0
-242 101 0
242 19 -24 -11 -167 -101 0
-243 174 0
-243 33 0
-243 -100 0
-243 1 0
-243 -179 0
243 -174 -33 100 -1 179 0
-244 -72 0
-244 -97 0
-244 41 0
-244 123 0
-244 -165 0
244 72 97 -41 -123 165 0
-245 -114 0
-245 -34 0
-245 -87 0
-245 72 0
-245 -16 0
245 114 34 87 -72 16 0
241 242 243 244 245 0
-246 -4 0
-246 150 0
-246 -39 0
-246 -72 0
-246 169 0
246 4 -150 39 72 -169 0
-247 -147 0
-247 164 0
-247 115 0
-247 -167 0
-247 -166 0
247 147 -164 -115 167 166 0
-248 164 0
-248 -115 0
-248 -42 0
-248 41 0
-248 119 0
248 -164 115 42 -41 -119 0
-249 -97 0
-249 -58 0
-249 172 0
-249 -49 0
-249 -95 0
249 97 58 -172 49 95 0
-250 72 0
-250 174 0
-250 47 0
-250 60 0
-250 162 0
250 -72 -174 -47 -60 -162 0
246 247 248 249 250 0
-251 -26 0
-251 -38 0
-251 -153 0
-251 127 0
-251 136 0
251 26 38 153 -127 -136 0
-252 75 0
-252 -157 0
-252 6 0
-252 -48 0
-252 112 0
252 -75 157 -6 48 -112 0
-253 116 0
-253 35 0
-253 59 0
-253 138 0
-253 80 0
253 -116 -35 -59 -138 -80 0
-254 48 0
-254 -100 0
-254 -182 0
-254 59 0
-254 -133 0
254 -48 100 182 -59 133 0
-255 -185 0
-255 -169 0
-255 100 0
-255 -11 0
-255 -96 0
255 185 169 -100 11 96 0
251 252 253 254 255 0
-256 -57 0
-256 158 0
-256 95 0
-256 -112 0
-256 -35 0
256 57 -158 -95 112 35 0
-257 -93 0
-257 128 0
-257 161 0
-257 -8 0
-257 169 0
257 93 -128 -161 8 -169 0
-258 -21 0
-258 71 0
-258 44 0
-258 -10 0
-258 -186 0
258 21 -71 -44 10 186 0
-259 177 0
-259 -170 0
-259 85 0
-259 -121 0
-259 19 0
259 -177 170 -85 121 -19 0
-260 178 0
-260 42 0
-260 -31 0
-260 -106 0
-260 -174 0
260 -178 -42 31 106 174 0
256 257 258 259 260 0
-261 -175 0
-261 55 0
-261 -120 0
-261 165 0
-261 163 0
261 175 -55 120 -165 -163 0
-262 -129 0
-262 143 0
-262 7 0
-262 -8 0
-262 -17 0
262 129 -143 -7 8 17 0
-263 -11 0
-263 61 0
-263 -96 0
-263 51 0
-263 -140 0
263 11 -61 96 -51 140 0
-264 -145 0
-264 -88 0
-264 -31 0
-264 -83 0
-264 -176 0
264 145 88 31 83 176 0
-265 127 0
-265 -175 0
-265 -87 0
-265 -123 0
-265 149 0
265 -127 175 87 123 -149 0
261 262 263 264 265 0
-266 72 0
-266 -161 0
-266 14 0
-266 -174 0
-266 11 0
266 -72 161 -14 174 -11 0
-267 -45 0
-267 -69 0
-267 130 0
-267 139 0
-267 94 0
267 45 69 -130 -139 -94 0
-268 -153 0
-268 -92 0
-268 35 0
-268 107 0
-268 156 0
268 153 92 -35 -107 -156 0
-269 35 0
-269 190 0
-269 -142 0
-269 83 0
-269 -77 0
269 -35 -190 142 -83 77 0
-270 -176 0
-270 -110 0
-270 107 0
-270 129 0
-270 -34 0
270 176 110 -107 -129 34 0
266 267 268 269 270 0
-271 -46 0
-271 -163 0
-271 162 0
-271 51 0
-271 -112 0
271 46 163 -162 -51 112 0
-272 -120 0
-272 -165 0
-272 -177 0
-272 -152 0
-272 137 0
272 120 165 177 152 -137 0
-273 160 0
-273 176 0
-273 82 0
-273 -29 0
-273 88 0
273 -160 -176 -82 29 -88 0
-274 60 0
-274 119 0
-274 36 0
-274 -174 0
-274 -129 0
274 -60 -119 -36 174 129 0
-275 35 0
-275 -132 0
-275 106 0
-275 157 0
-275 -32 0
275 -35 132 -106 -157 32 0
271 272 273 274 275 0
-276 -186 0
-276 184 0
-276 132 0
-276 -148 0
-276 114 0
276 186 -184 -132 148 -114 0
-277 101 0
-277 -94 0
-277 82 0
-277 -136 0
-277 -52 0
277 -101 94 -82 136 52 0
-278 -184 0
-278 52 0
-278 -108 0
-278 -113 0
-278 -99 0
278 184 -52 108 113 99 0
-279 -62 0
-279 -155 0
-279 -118 0
-279 -120 0
-279 66 0
279 62 155 118 120 -66 0
-280 -31 0
-280 43 0
-280 189 0
-280 -37 0
-280 150 0
280 31 -43 -189 37 -150 0
276 277 278 279 280 0
-281 -127 0
-281 -97 0
-281 111 0
-281 -33 0
-281 47 0
281 127 97 -111 33 -47 0
-282 -38 0
-282 136 0
-282 -97 0
-282 124 0
-282 77 0
282 38 -136 97 -124 -77 0
-283 116 0
-283 -87 0
-283 -31 0
-283 80 0
-283 97 0
283 -116 87 31 -80 -97 0
-284 17 0
-284 3 0
-284 -152 0
-284 -10 0
-284 -36 0
284 -17 -3 152 10 36 0
-285 5 0
-285 28 0
-285 48 0
-285 -152 0
-285 32 0
285 -5 -28 -48 152 -32 0
281 282 283 284 285 0
-286 -141 0
-286 -50 0
-286 -170 0
-286 -184 0
-286 128 0
286 141 50 170 184 -128 0
-287 -106 0
-287 1 0
-287 53 0
-287 23 0
-287 157 0
287 106 -1 -53 -23 -157 0
-288 147 0
-288 -169 0
-288 115 0
-288 111 0
-288 190 0
288 -147 169 -115 -111 -190 0
-289 -177 0
-289 -26 0
-289 -70 0
-289 -16 0
-289 -173 0
289 177 26 70 16 173 0
-290 74 0
-290 64 0
-290 -31 0
-290 38 0
-290 53 0
290 -74 -64 31 -38 -53 0
286 287 288 289 290 0
-291 53 0
-291 -101 0
-291 -88 0
-291 65 0
-291 68 0
291 -53 101 88 -65 -68 0
-292 -51 0
-292 -92 0
-292 -25 0
-292 181 0
-292 132 0
292 51 92 25 -181 -132 0
-293 2 0
-293 119 0
-293 -99 0
-293 83 0
-293 -64 0
293 -2 -119 99 -83 64 0
-294 -147 0
-294 43 0
-294 168 0
-294 -58 0
-294 -160 0
294 147 -43 -168 58 160 0
-295 -139 0
-295 -69 0
-295 -120 0
-295 179 0
-295 31 0
295 139 69 120 -179 -31 0
291 292 293 294 295 0
-296 180 0
-296 -90 0
-296 -123 0
-296 57 0
-296 102 0
296 -180 90 123 -57 -102 0
-297 112 0
-297 146 0
-297 122 0
-297 -87 0
-297 -23 0
297 -112 -146 -122 87 23 0
-298 2 0
-298 86 0
-298 -166 0
-298 -161 0
-298 -99 0
298 -2 -86 166 161 99 0
-299 -146 0
-299 -1 0
-299 185 0
-299 -155 0
-299 103 0
299 146 1 -185 155 -103 0
-300 134 0
-300 180 0
-300 -111 0
-300 -138 0
-300 153 0
300 -134 -180 111 138 -153 0
296 297 298 299 300 0
-301 -92 0
-301 155 0
-301 99 0
-301 -53 0
-301 -108 0
301 92 -155 -99 53 108 0
-302 65 0
-302 -76 0
-302 -110 0
-302 147 0
-302 28 0
302 -65 76 110 -147 -28 0
-303 -86 0
-303 189 0
-303 -56 0
-303 141 0
-303 -75 0
303 86 -189 56 -141 75 0
-304 161 0
-304 164 0
-304 132 0
-304 -14 0
-304 175 0
304 -161 -164 -132 14 -175 0
-305 127 0
-305 -169 0
-305 113 0
-305 -42 0
-305 -126 0
305 -127 169 -113 42 126 0
301 302 303 304 305 0
-306 -113 0
-306 -73 0
-306 114 0
-306 -42 0
-306 181 0
306 113 73 -114 42 -181 0
-307 1 0
-307 79 0
-307 -166 0
-307 -184 0
-307 29 0
307 -1 -79 166 184 -29 0
-308 10 0
-308 164 0
-308 -143 0
-308 -158 0
-308 -14 0
308 -10 -164 143 158 14 0
-309 40 0
-309 133 0
-309 34 0
-309 12 0
-309 -161 0
309 -40 -133 -34 -12 161 0
-310 -61 0
-310 -185 0
-310 112 0
-310 100 0
-310 -27 0
310 61 185 -112 -100 27 0
306 307 308 309 310 0
-311 150 0
-311 -79 0
-311 -54 0
-311 -98 0
-311 -10 0
311 -150 79 54 98 10 0
-312 -68 0
-312 -34 0
-312 127 0
-312 130 0
-312 92 0
312 68 34 -127 -130 -92 0
-313 -117 0
-313 135 0
-313 -32 0
-313 77 0
-313 -153 0
313 117 -135 32 -77 153 0
-314 69 0
-314 -74 0
-314 -76 0
-314 -139 0
-314 107 0
314 -69 74 76 139 -107 0
-315 163 0
-315 -114 0
-315 -15 0
-315 179 0
-315 39 0
315 -163 114 15 -179 -39 0
311 312 313 314 315 0
-316 115 0
-316 -132 0
-316 82 0
-316 -189 0
-316 -165 0
316 -115 132 -82 189 165 0
-317 -99 0
-317 -93 0
-317 -64 0
-317 -134 0
-317 -77 0
317 99 93 64 134 77 0
-318 -48 0
-318 -148 0
-318 -47 0
-318 -11 0
-318 8 0
318 48 148 47 11 -8 0
-319 -74 0
-319 126 0
-319 -143 0
-319 149 0
-319 145 0
319 74 -126 143 -149 -145 0
-320 -156 0
-320 139 0
-320 -110 0
-320 -54 0
-320 170 0
320 156 -139 110 54 -170 0
316 317 318 319 320 0
-321 -102 0
-321 -54 0
-321 -29 0
-321 91 0
-321 79 0
321 102 54 29 -91 -79 0
-322 36 0
-322 -102 0
-322 90 0
-322 100 0
-322 -188 0
322 -36 102 -90 -100 188 0
-323 176 0
-323 -162 0
-323 67 0
-323 -5 0
-323 -148 0
323 -176 162 -67 5 148 0
-324 128 0
-324 -172 0
-324 -28 0
-324 33 0
-324 -176 0
324 -128 172 28 -33 176 0
-325 -181 0
-325 73 0
-325 124 0
-325 -12 0
-325 162 0
325 181 -73 -124 12 -162 0
321 322 323 324 325 0
-326 -183 0
-326 102 0
-326 -175 0
-326 60 0
-326 24 0
326 183 -102 175 -60 -24 0
-327 179 0
-327 -110 0
-327 91 0
-327 74 0
-327 29 0
327 -179 110 -91 -74 -29 0
-328 189 0
-328 -133 0
-328 -40 0
-328 -8 0
-328 -27 0
328 -189 133 40 8 27 0
-329 147 0
-329 125 0
-329 20 0
-329 132 0
-329 80 0
329 -147 -125 -20 -132 -80 0
-330 91 0
-330 -4 0
-330 104 0
-330 19 0
-330 -182 0
330 -91 4 -104 -19 182 0
326 327 328 329 330 0
-331 161 0
-331 24 0
-331 -14 0
-331 -89 0
-331 -18 0
331 -161 -24 14 89 18 0
-332 -95 0
-332 -103 0
-332 141 0
-332 8 0
-332 110 0
332 95 103 -141 -8 -110 0
-333 148 0
-333 -64 0
-333 -159 0
-333 -20 0
-333 100 0
333 -148 64 159 20 -100 0
-334 -86 0
-334 131 0
-334 97 0
-334 -92 0
-334 176 0
334 86 -131 -97 92 -176 0
-335 -68 0
-335 70 0
-335 33 0
-335 -20 0
-335 -165 0
335 68 -70 -33 20 165 0
331 332 333 334 335 0
-336 -99 0
-336 76 0
-336 185 0
-336 -75 0
-336 -188 0
336 99 -76 -185 75 188 0
-337 51 0
-337 -54 0
-337 153 0
-337 110 0
-337 -134 0
337 -51 54 -153 -110 134 0
-338 -5 0
-338 -17 0
-338 -57 0
-338 96 0
-338 -104 0
338 5 17 57 -96 104 0
-339 175 0
-339 180 0
-339 54 0
-339 93 0
-339 35 0
339 -175 -180 -54 -93 -35 0
-340 156 0
-340 -53 0
-340 -117 0
-340 165 0
-340 -77 0
340 -156 53 117 -165 77 0
336 337 338 339 340 0
-341 80 0
-341 -123 0
-341 88 0
-341 115 0
-341 114 0
341 -80 123 -88 -115 -114 0
-342 -103 0
-342 166 0
-342 1 0
-342 123 0
-342 47 0
342 103 -166 -1 -123 -47 0
-343 38 0
-343 -119 0
-343 -49 0
-343 -47 0
-343 -51 0
343 -38 119 49 47 51 0
-344 -164 0
-344 95 0
-344 -167 0
-344 63 0
-344 35 0
344 164 -95 167 -63 -35 0
-345 -99 0
-345 -6 0
-345 127 0
-345 145 0
-345 187 0
345 99 6 -127 -145 -187 0
341 342 343 344 345 0
-346 -6 0
-346 -190 0
-346 182 0
-346 -164 0
-346 -52 0
346 6 190 -182 164 52 0
-347 -87 0
-347 -56 0
-347 42 0
-347 44 0
-347 147 0
347 87 56 -42 -44 -147 0
-348 -152 0
-348 64 0
-348 188 0
-348 -79 0
-348 105 0
348 152 -64 -188 79 -105 0
-349 -178 0
-349 73 0
-349 -139 0
-349 -168 0
-349 62 0
349 178 -73 139 168 -62 0
-350 -171 0
-350 -138 0
-350 143 0
-350 85 0
-350 153 0
350 171 138 -143 -85 -153 0
346 347 348 349 350 0
-351 -71 0
-351 4 0
-351 -121 0
-351 164 0
-351 -31 0
351 71 -4 121 -164 31 0
-352 114 0
-352 -64 0
-352 182 0
-352 -124 0
-352 113 0
352 -114 64 -182 124 -113 0
-353 -94 0
-353 -20 0
-353 38 0
-353 43 0
-353 100 0
353 94 20 -38 -43 -100 0
-354 -50 0
-354 -42 0
-354 -154 0
-354 -125 0
-354 -78 0
354 50 42 154 125 78 0
-355 -7 0
-355 -188 0
-355 99 0
-355 -107 0
-355 -55 0
355 7 188 -99 107 55 0
351 352 353 354 355 0
-356 81 0
-356 138 0
-356 152 0
-356 -50 0
-356 -40 0
356 -81 -138 -152 50 40 0
-357 -115 0
-357 -3 0
-357 -26 0
-357 -65 0
-357 147 0
357 115 3 26 65 -147 0
-358 -45 0
-358 103 0
-358 -146 0
-358 -79 0
-358 164 0
358 45 -103 146 79 -164 0
-359 -111 0
-359 -30 0
-359 18 0
-359 29 0
-359 -25 0
359 111 30 -18 -29 25 0
-360 162 0
-360 167 0
-360 -60 0
-360 -23 0
-360 -142 0
360 -162 -167 60 23 142 0
356 357 358 359 360 0
-361 -2 0
-361 -85 0
-361 -19 0
-361 64 0
-361 143 0
361 2 85 19 -64 -143 0
-362 -103 0
-362 -177 0
-362 93 0
-362 171 0
-362 -176 0
362 103 177 -93 -171 176 0
-363 169 0
-363 54 0
-363 40 0
-363 9 0
-363 -99 0
363 -169 -54 -40 -9 99 0
-364 -70 0
-364 -108 0
-364 171 0
-364 -85 0
-364 110 0
364 70 108 -171 85 -110 0
-365 79 0
-365 176 0
-365 -109 0
-365 -15 0
-365 -39 0
365 -79 -176 109 15 39 0
361 362 363 364 365 0
-366 65 0
-366 146 0
-366 -50 0
-366 166 0
-366 6 0
366 -65 -146 50 -166 -6 0
-367 -124 0
-367 66 0
-367 107 0
-367 -24 0
-367 11 0
367 124 -66 -107 24 -11 0
-368 121 0
-368 168 0
-368 -3 0
-368 -142 0
-368 -185 0
368 -121 -168 3 142 185 0
-369 131 0
-369 32 0
-369 105 0
-369 -172 0
-369 -156 0
369 -131 -32 -105 172 156 0
-370 -163 0
-370 -57 0
-370 131 0
-370 -126 0
-370 -16 0
370 163 57 -131 126 16 0
366 367 368 369 370 0
-371 -59 0
-371 127 0
-371 -166 0
-371 -39 0
-371 -74 0
371 59 -127 166 39 74 0
-372 137 0
-372 27 0
-372 155 0
-372 -96 0
-372 -183 0
372 -137 -27 -155 96 183 0
-373 -59 0
-373 -179 0
-373 -174 0
-373 -148 0
-373 -131 0
373 59 179 174 148 131 0
-374 -107 0
-374 -71 0
-374 -24 0
-374 -72 0
-374 -98 0
374 107 71 24 72 98 0
-375 142 0
-375 15 0
-375 42 0
-375 82 0
-375 -189 0
375 -142 -15 -42 -82 189 0
371 372 373 374 375 0
-376 140 0
-376 91 0
-376 -138 0
-376 20 0
-376 8 0
376 -140 -91 138 -20 -8 0
-377 -176 0
-377 72 0
-377 170 0
-377 -43 0
-377 -2 0
377 176 -72 -170 43 2 0
-378 -95 0
-378 167 0
-378 66 0
-378 -144 0
-378 -1 0
378 95 -167 -66 144 1 0
-379 124 0
-379 58 0
-379 -73 0
-379 84 0
-379 -98 0
379 -124 -58 73 -84 98 0
-380 -128 0
-380 181 0
-380 -34 0
-380 -125 0
-380 46 0
380 128 -181 34 125 -46 0
376 377 378 379 380 0
-381 -109 0
-381 -32 0
-381 -107 0
-381 -98 0
-381 4 0
381 109 32 107 98 -4 0
-382 -63 0
-382 -21 0
-382 -61 0
-382 -87 0
-382 46 0
382 63 21 61 87 -46 0
-383 82 0
-383 92 0
-383 -162 0
-383 106 0
-383 -142 0
383 -82 -92 162 -106 142 0
-384 6 0
-384 -34 0
-384 86 0
-384 -20 0
-384 51 0
384 -6 34 -86 20 -51 0
-385 -49 0
-385 -13 0
-385 91 0
-385 11 0
-385 173 0
385 49 13 -91 -11 -173 0
381 382 383 384 385 0
-386 -154 0
-386 112 0
-386 -3 0
-386 -174 0
-386 -183 0
386 154 -112 3 174 183 0
-387 70 0
-387 188 0
-387 101 0
-387 -26 0
-387 14 0
387 -70 -188 -101 26 -14 0
-388 118 0
-388 -169 0
-388 -127 0
-388 55 0
-388 152 0
388 -118 169 127 -55 -152 0
-389 -140 0
-389 119 0
-389 82 0
-389 42 0
-389 -43 0
389 140 -119 -82 -42 43 0
-390 130 0
-390 171 0
-390 -177 0
-390 56 0
-390 137 0
390 -130 -171 177 -56 -137 0
386 387 388 389 390 0
-391 -76 0
-391 -149 0
-391 12 0
-391 -6 0
-391 1 0
391 76 149 -12 6 -1 0
-392 -98 0
-392 -100 0
-392 -29 0
-392 56 0
-392 175 0
392 98 100 29 -56 -175 0
-393 166 0
-393 93 0
-393 -52 0
-393 65 0
-393 36 0
393 -166 -93 52 -65 -36 0
-394 -82 0
-394 93 0
-394 -165 0
-394 171 0
-394 -151 0
394 82 -93 165 -171 151 0
-395 48 0
-395 -79 0
-395 49 0
-395 98 0
-395 -150 0
395 -48 79 -49 -98 150 0
391 392 393 394 395 0
-396 -103 0
-396 -46 0
-396 153 0
-396 -41 0
-396 -114 0
396 103 46 -153 41 114 0
-397 58 0
-397 40 0
-397 65 0
-397 -78 0
-397 149 0
397 -58 -40 -65 78 -149 0
-398 43 0
-398 45 0
-398 -37 0
-398 -83 0
-398 -109 0
398 -43 -45 37 83 109 0
-399 77 0
-399 6 0
-399 39 0
-399 134 0
-399 -84 0
399 -77 -6 -39 -134 84 0
-400 -44 0
-400 -122 0
-400 152 0
-400 -20 0
-400 -25 0
400 44 122 -152 20 25 0
396 397 398 399 400 0
-401 15 0
-401 19 0
-401 22 0
-401 -54 0
-401 -44 0
401 -15 -19 -22 54 44 0
-402 -40 0
-402 -148 0
-402 59 0
-402 -94 0
-402 -131 0
402 40 148 -59 94 131 0
-403 124 0
-403 -25 0
-403 14 0
-403 -126 0
-403 -82 0
403 -124 25 -14 126 82 0
-404 171 0
-404 81 0
-404 -5 0
-404 179 0
-404 38 0
404 -171 -81 5 -179 -38 0
-405 81 0
-405 47 0
-405 -155 0
-405 -122 0
-405 -116 0
405 -81 -47 155 122 116 0
401 402 403 404 405 0
-406 77 0
-406 -12 0
-406 -73 0
-406 87 0
-406 -129 0
406 -77 12 73 -87 129 0
-407 76 0
-407 32 0
-407 -71 0
-407 -47 0
-407 62 0
407 -76 -32 71 47 -62 0
-408 61 0
-408 -70 0
-408 187 0
-408 -16 0
-408 27 0
408 -61 70 -187 16 -27 0
-409 -83 0
-409 -107 0
-409 -56 0
-409 48 0
-409 32 0
409 83 107 56 -48 -32 0
-410 -131 0
-410 39 0
-410 31 0
-410 44 0
-410 178 0
410 131 -39 -31 -44 -178 0
406 407 408 409 410 0
-411 -98 0
-411 95 0
-411 -68 0
-411 -185 0
-411 66 0
411 98 -95 68 185 -66 0
-412 24 0
-412 -161 0
-412 -82 0
-412 -176 0
-412 78 0
412 -24 161 82 176 -78 0
-413 -71 0
-413 -145 0
-413 -141 0
-413 -131 0
-413 19 0
413 71 145 141 131 -19 0
-414 176 0
-414 134 0
-414 -186 0
-414 78 0
-414 164 0
414 -176 -134 186 -78 -164 0
-415 -32 0
-415 119 0
-415 -109 0
-415 -179 0
-415 -126 0
415 32 -119 109 179 126 0
411 412 413 414 415 0
-416 -163 0
-416 -37 0
-416 55 0
-416 125 0
-416 -92 0
416 163 37 -55 -125 92 0
-417 41 0
-417 90 0
-417 -54 0
-417 8 0
-417 -86 0
417 -41 -90 54 -8 86 0
-418 107 0
-418 -72 0
-418 48 0
-418 -17 0
-418 59 0
418 -107 72 -48 17 -59 0
-419 179 0
-419 -83 0
-419 -95 0
-419 -148 0
-419 -147 0
419 -179 83 95 148 147 0
-420 66 0
-420 -10 0
-420 -84 0
-420 60 0
-420 117 0
420 -66 10 84 -60 -117 0
416 417 418 419 420 0
-421 -126 0
-421 128 0
-421 -104 0
-421 -103 0
-421 -62 0
421 126 -128 104 103 62 0
-422 -66 0
-422 -189 0
-422 169 0
-422 -8 0
-422 -110 0
422 66 189 -169 8 110 0
-423 101 0
-423 48 0
-423 25 0
-423 -160 0
-423 -51 0
423 -101 -48 -25 160 51 0
-424 78 0
-424 71 0
-424 149 0
-424 -163 0
-424 60 0
424 -78 -71 -149 163 -60 0
-425 -105 0
-425 -154 0
-425 22 0
-425 16 0
-425 -86 0
425 105 154 -22 -16 86 0
421 422 423 424 425 0
-426 -140 0
-426 104 0
-426 83 0
-426 120 0
-426 -31 0
426 140 -104 -83 -120 31 0
-427 175 0
-427 12 0
-427 -178 0
-427 -169 0
-427 -36 0
427 -175 -12 178 169 36 0
-428 189 0
-428 5 0
-428 -4 0
-428 -70 0
-428 -66 0
428 -189 -5 4 70 66 0
-429 40 0
-429 52 0
-429 -103 0
-429 -127 0
-429 6 0
429 -40 -52 103 127 -6 0
-430 142 0
-430 -111 0
-430 -179 0
-430 133 0
-430 20 0
430 -142 111 179 -133 -20 0
426 427 428 429 430 0
